
Gurobi 10.0.1 (linux64) logging started Sun Nov 26 15:45:11 2023

Set parameter LogFile to value "ArtificialInstance/ExperimentV2/S4T3K1/BaDo/gurobi91.txt"
Gurobi Optimizer version 10.0.1 build v10.0.1rc0 (linux64)

CPU model: AMD EPYC 7H12 64-Core Processor, instruction set [SSE2|AVX|AVX2]
Thread count: 128 physical cores, 128 logical processors, using up to 32 threads

Academic license 656792 - for non-commercial use only - registered to b.___@student.vu.nl
Optimize a model with 210 rows, 400 columns and 1120 nonzeros
Model fingerprint: 0xc1d00638
Variable types: 0 continuous, 400 integer (400 binary)
Coefficient statistics:
  Matrix range     [1e+00, 1e+00]
  Objective range  [2e+00, 2e+01]
  Bounds range     [1e+00, 1e+00]
  RHS range        [1e+00, 1e+00]
Found heuristic solution: objective 134.4068877
Presolve time: 0.00s
Presolved: 210 rows, 400 columns, 1120 nonzeros
Variable types: 0 continuous, 400 integer (400 binary)

Root relaxation: objective 2.963393e+01, 185 iterations, 0.00 seconds (0.00 work units)

    Nodes    |    Current Node    |     Objective Bounds      |     Work
 Expl Unexpl |  Obj  Depth IntInf | Incumbent    BestBd   Gap | It/Node Time

     0     0   29.63393    0   42  134.40689   29.63393  78.0%     -    0s
H    0     0                     115.5140603   29.63393  74.3%     -    0s
H    0     0                     113.7608685   29.63393  74.0%     -    0s
H    0     0                      39.5766493   29.63393  25.1%     -    0s
H    0     0                      38.9608940   34.76255  10.8%     -    0s
     0     0   34.76255    0   45   38.96089   34.76255  10.8%     -    0s
H    0     0                      35.6745852   34.76255  2.56%     -    0s

Cutting planes:
  Gomory: 5
  Zero half: 8

Explored 1 nodes (296 simplex iterations) in 0.03 seconds (0.01 work units)
Thread count was 32 (of 128 available processors)

Solution count 6: 35.6746 38.9609 39.5766 ... 134.407

Optimal solution found (tolerance 1.00e-04)
Best objective 3.567458520966e+01, best bound 3.567458520966e+01, gap 0.0000%
